(set-info :status unknown)
(declare-const symbol_140 (_ BitVec 32))
(declare-const symbol_71 (_ BitVec 32))
(declare-const symbol_55 (_ BitVec 32))
(declare-const symbol_32 (_ BitVec 32))
(declare-const symbol_162 (_ BitVec 32))
(declare-const symbol_150 (_ BitVec 32))
(declare-const symbol_160 (_ BitVec 32))
(declare-const symbol_78 (_ BitVec 32))
(declare-const symbol_175 (_ BitVec 32))
(declare-const symbol_144 (_ BitVec 32))
(declare-const symbol_134 (_ BitVec 32))
(declare-const symbol_73 (_ BitVec 32))
(declare-const symbol_42 (_ BitVec 32))
(declare-const symbol_156 (_ BitVec 32))
(declare-const symbol_118 (_ BitVec 32))
(declare-const symbol_91 (_ BitVec 32))
(declare-const symbol_109 (_ BitVec 32))
(declare-const symbol_152 (_ BitVec 32))
(declare-const symbol_164 (_ BitVec 32))
(declare-const symbol_132 (_ BitVec 32))
(declare-const symbol_113 (_ BitVec 32))
(declare-const symbol_130 (_ BitVec 32))
(declare-const symbol_168 (_ BitVec 32))
(declare-const symbol_116 (_ BitVec 32))
(declare-const symbol_128 (_ BitVec 32))
(declare-const symbol_60 (_ BitVec 32))
(declare-const symbol_10 (_ BitVec 32))
(declare-const symbol_84 (_ BitVec 32))
(declare-const symbol_75 (_ BitVec 32))
(declare-const symbol_26 (_ BitVec 32))
(declare-const symbol_28 (_ BitVec 32))
(declare-const symbol_158 (_ BitVec 32))
(declare-const symbol_0 (_ BitVec 32))
(declare-const symbol_82 (_ BitVec 32))
(declare-const symbol_166 (_ BitVec 32))
(declare-const symbol_44 (_ BitVec 32))
(declare-const symbol_179 (_ BitVec 32))
(declare-const symbol_103 (_ BitVec 32))
(declare-const symbol_96 (_ BitVec 32))
(declare-const symbol_65 (_ BitVec 32))
(declare-const symbol_36 (_ BitVec 32))
(declare-const symbol_181 (_ BitVec 32))
(declare-const symbol_64 (_ BitVec 32))
(declare-const symbol_183 (_ BitVec 32))
(declare-const symbol_52 (_ BitVec 32))
(declare-const symbol_16 (_ BitVec 32))
(declare-const symbol_34 (_ BitVec 32))
(declare-const symbol_3 (_ BitVec 32))
(declare-const symbol_14 (_ BitVec 32))
(declare-const symbol_126 (_ BitVec 32))
(declare-const symbol_46 (_ BitVec 32))
(declare-const symbol_38 (_ BitVec 32))
(declare-const symbol_24 (_ BitVec 32))
(declare-const symbol_105 (_ BitVec 32))
(declare-const symbol_57 (_ BitVec 32))
(declare-const symbol_22 (_ BitVec 32))
(declare-const symbol_94 (_ BitVec 32))
(declare-const symbol_67 (_ BitVec 32))
(declare-const symbol_62 (_ BitVec 32))
(declare-const symbol_173 (_ BitVec 32))
(declare-const symbol_177 (_ BitVec 32))
(declare-const symbol_122 (_ BitVec 32))
(declare-const symbol_80 (_ BitVec 32))
(declare-const symbol_50 (_ BitVec 32))
(declare-const symbol_18 (_ BitVec 32))
(declare-const symbol_170 (_ BitVec 32))
(declare-const symbol_40 (_ BitVec 32))
(declare-const symbol_30 (_ BitVec 32))
(declare-const symbol_136 (_ BitVec 32))
(declare-const symbol_111 (_ BitVec 32))
(declare-const symbol_120 (_ BitVec 32))
(declare-const symbol_99 (_ BitVec 32))
(declare-const symbol_2 (_ BitVec 32))
(declare-const symbol_107 (_ BitVec 32))
(declare-const symbol_101 (_ BitVec 32))
(declare-const symbol_154 (_ BitVec 32))
(declare-const symbol_142 (_ BitVec 32))
(declare-const symbol_98 (_ BitVec 32))
(declare-const symbol_89 (_ BitVec 32))
(declare-const symbol_124 (_ BitVec 32))
(declare-const symbol_20 (_ BitVec 32))
(declare-const symbol_7 (_ BitVec 32))
(declare-const symbol_53 (_ BitVec 32))
(declare-const symbol_59 (_ BitVec 32))
(declare-const symbol_146 (_ BitVec 32))
(declare-const symbol_148 (_ BitVec 32))
(declare-const symbol_138 (_ BitVec 32))
(declare-const symbol_69 (_ BitVec 32))
(declare-const symbol_12 (_ BitVec 32))
(declare-const symbol_76 (_ BitVec 32))
(declare-const symbol_5 (_ BitVec 32))
(declare-const symbol_87 (_ BitVec 32))
(declare-const symbol_48 (_ BitVec 32))
(assert (= symbol_183 (_ bv8 32)))
(assert (not (not (= symbol_183 (_ bv7 32)))))
(assert (not (not (= symbol_181 (_ bv7 32)))))
(assert (not (not (= symbol_179 (_ bv7 32)))))
(assert (not (not (= symbol_177 (_ bv7 32)))))
(assert (not (not (= symbol_175 (_ bv7 32)))))
(assert (not (not (= symbol_173 (_ bv7 32)))))
(assert (not (not (= symbol_170 (_ bv7 32)))))
(assert (not (not (= symbol_168 (_ bv7 32)))))
(assert (not (not (= symbol_166 (_ bv7 32)))))
(assert (not (not (= symbol_164 (_ bv7 32)))))
(assert (not (not (= symbol_162 (_ bv7 32)))))
(assert (not (not (= symbol_160 (_ bv7 32)))))
(assert (not (not (= symbol_158 (_ bv7 32)))))
(assert (not (not (= symbol_156 (_ bv7 32)))))
(assert (not (not (= symbol_154 (_ bv7 32)))))
(assert (not (not (= symbol_152 (_ bv7 32)))))
(assert (not (not (= symbol_150 (_ bv7 32)))))
(assert (not (not (= symbol_148 (_ bv7 32)))))
(assert (not (not (= symbol_146 (_ bv7 32)))))
(assert (not (not (= symbol_144 (_ bv7 32)))))
(assert (not (not (= symbol_142 (_ bv7 32)))))
(assert (not (not (= symbol_140 (_ bv7 32)))))
(assert (not (not (= symbol_138 (_ bv7 32)))))
(assert (not (not (= symbol_136 (_ bv7 32)))))
(assert (not (not (= symbol_134 (_ bv7 32)))))
(assert (not (not (= symbol_132 (_ bv7 32)))))
(assert (not (not (= symbol_130 (_ bv7 32)))))
(assert (not (not (= symbol_128 (_ bv7 32)))))
(assert (not (not (= symbol_126 (_ bv7 32)))))
(assert (not (not (= symbol_124 (_ bv7 32)))))
(assert (not (not (= symbol_122 (_ bv7 32)))))
(assert (not (not (= symbol_120 (_ bv7 32)))))
(assert (not (not (= symbol_118 (_ bv7 32)))))
(assert (not (not (= symbol_116 (_ bv7 32)))))
(assert (not (not (= symbol_113 (_ bv7 32)))))
(assert (not (not (= symbol_111 (_ bv7 32)))))
(assert (not (not (= symbol_109 (_ bv7 32)))))
(assert (not (not (= symbol_107 (_ bv7 32)))))
(assert (not (not (= symbol_105 (_ bv7 32)))))
(assert (not (not (= symbol_103 (_ bv7 32)))))
(assert (not (not (= symbol_101 (_ bv7 32)))))
(assert (not (not (= symbol_99 (_ bv7 32)))))
(assert (not (not (= symbol_98 (_ bv7 32)))))
(assert (not (not (= symbol_96 (_ bv7 32)))))
(assert (not (not (= symbol_94 (_ bv7 32)))))
(assert (not (not (= symbol_91 (_ bv7 32)))))
(assert (not (not (= symbol_89 (_ bv7 32)))))
(assert (not (not (= symbol_87 (_ bv7 32)))))
(assert (not (not (= symbol_84 (_ bv7 32)))))
(assert (not (not (= symbol_82 (_ bv7 32)))))
(assert (not (not (= symbol_80 (_ bv7 32)))))
(assert (not (not (= symbol_78 (_ bv7 32)))))
(assert (not (not (= symbol_76 (_ bv7 32)))))
(assert (not (not (= symbol_75 (_ bv7 32)))))
(assert (not (not (= symbol_73 (_ bv7 32)))))
(assert (not (not (= symbol_71 (_ bv7 32)))))
(assert (not (not (= symbol_69 (_ bv7 32)))))
(assert (not (not (= symbol_67 (_ bv7 32)))))
(assert (not (not (= symbol_65 (_ bv7 32)))))
(assert (not (not (= symbol_64 (_ bv7 32)))))
(assert (not (not (= symbol_62 (_ bv7 32)))))
(assert (not (not (= symbol_60 (_ bv7 32)))))
(assert (not (not (= symbol_59 (_ bv7 32)))))
(assert (not (not (= symbol_57 (_ bv7 32)))))
(assert (not (not (= symbol_55 (_ bv7 32)))))
(assert (not (not (= symbol_53 (_ bv7 32)))))
(assert (not (not (= symbol_52 (_ bv7 32)))))
(assert (not (not (= symbol_50 (_ bv7 32)))))
(assert (not (not (= symbol_48 (_ bv7 32)))))
(assert (not (not (= symbol_46 (_ bv7 32)))))
(assert (not (not (= symbol_44 (_ bv7 32)))))
(assert (not (not (= symbol_42 (_ bv7 32)))))
(assert (not (not (= symbol_40 (_ bv7 32)))))
(assert (not (not (= symbol_38 (_ bv7 32)))))
(assert (not (not (= symbol_36 (_ bv7 32)))))
(assert (not (not (= symbol_34 (_ bv7 32)))))
(assert (not (not (= symbol_32 (_ bv7 32)))))
(assert (not (not (= symbol_30 (_ bv7 32)))))
(assert (not (not (= symbol_28 (_ bv7 32)))))
(assert (not (not (= symbol_26 (_ bv7 32)))))
(assert (not (not (= symbol_24 (_ bv7 32)))))
(assert (not (not (= symbol_22 (_ bv7 32)))))
(assert (not (not (= symbol_20 (_ bv7 32)))))
(assert (not (not (= symbol_18 (_ bv7 32)))))
(assert (not (not (= symbol_16 (_ bv7 32)))))
(assert (not (not (= symbol_14 (_ bv7 32)))))
(assert (not (not (= symbol_12 (_ bv7 32)))))
(assert (not (not (= symbol_10 (_ bv7 32)))))
(assert (not (not (= symbol_7 (_ bv7 32)))))
(assert (not (not (= symbol_5 (_ bv7 32)))))
(assert (not (not (= symbol_3 (_ bv7 32)))))
(assert (not (not (= symbol_2 (_ bv7 32)))))
(assert (not (not (= symbol_0 (_ bv10 32)))))
(assert (not (= symbol_0 (_ bv7 32))))
(check-sat)